NAME: typeset.16000.68.sop
COMMENT: Received by Ghassan Shobaki
DIMENSION: 70
TYPE: SOP
EDGE_WEIGHT_TYPE: EXPLICIT
EDGE_WEIGHT_FORMAT: FULL_MATRIX
EDGE_WEIGHT_SECTION
70
0   0   0   0   0   0   0   0   0   0   0   0   0   0   0   0   0   0   0   0   0   0   0   0   0   0   0   0   0   0   0   0   0   0   0   0   0   0   0   0   0   0   0   0   0   0   0   0   0   0   0   0   0   0   0   0   0   0   0   0   0   0   0   0   0   0   0   0   0   34  
-1  0   2   7   9   7   9   6   6   6   14  14  14  9   7   8   7   7   5   14  14  14  14  14  14  14  14  14  14  14  14  14  14  14  14  14  14  14  14  14  14  14  14  14  14  14  14  14  14  14  14  14  14  14  14  14  14  14  14  14  14  10  12  11  11  10  9   14  14  0   
-1  2   0   9   7   9   7   6   6   8   14  14  14  7   5   8   7   7   5   14  14  14  14  14  14  14  14  14  14  14  14  14  14  14  14  14  14  14  14  14  14  14  14  14  14  14  14  14  14  14  14  14  14  14  14  14  14  14  14  14  14  10  12  11  9   10  9   14  14  0   
-1  7   9   0   2   2   4   5   5   3   13  13  13  4   4   3   4   4   4   13  13  13  13  13  13  13  13  13  13  13  13  13  13  13  13  13  13  13  13  13  13  13  13  13  13  13  13  13  13  13  13  13  13  13  13  13  13  13  13  13  13  7   11  12  12  7   12  13  13  0   
-1  9   7   2   0   4   2   5   5   5   13  13  13  2   2   3   4   4   4   13  13  13  13  13  13  13  13  13  13  13  13  13  13  13  13  13  13  13  13  13  13  13  13  13  13  13  13  13  13  13  13  13  13  13  13  13  13  13  13  13  13  7   11  12  10  7   12  13  13  0   
-1  7   9   2   4   0   2   5   5   5   13  13  13  4   6   3   4   4   4   13  13  13  13  13  13  13  13  13  13  13  13  13  13  13  13  13  13  13  13  13  13  13  13  13  13  13  13  13  13  13  13  13  13  13  13  13  13  13  13  13  13  7   11  12  12  7   10  13  13  0   
-1  9   7   4   2   2   0   5   5   7   13  13  13  2   4   3   4   4   4   13  13  13  13  13  13  13  13  13  13  13  13  13  13  13  13  13  13  13  13  13  13  13  13  13  13  13  13  13  13  13  13  13  13  13  13  13  13  13  13  13  13  7   11  12  10  7   10  13  13  0   
-1  6   -1  5   5   5   5   0   2   4   16  16  16  7   5   6   5   7   3   16  16  16  16  16  16  16  16  16  16  16  16  16  16  16  16  16  16  16  16  16  16  16  16  16  16  16  16  16  16  16  16  16  16  16  16  16  16  16  16  16  16  10  14  13  11  10  11  16  16  0   
-1  -1  6   5   5   5   5   2   0   4   14  14  14  7   5   8   7   5   5   14  14  14  14  14  14  14  14  14  14  14  14  14  14  14  14  14  14  14  14  14  14  14  14  14  14  14  14  14  14  14  14  14  14  14  14  14  14  14  14  14  14  8   12  11  11  8   9   14  14  0   
-1  6   8   -1  5   5   7   -1  4   0   14  14  14  5   5   4   5   5   5   14  14  14  14  14  14  14  14  14  14  14  14  14  14  14  14  14  14  14  14  14  14  14  14  14  14  14  14  14  14  14  14  14  14  14  14  14  14  14  14  14  14  8   12  13  13  8   13  14  14  0   
-1  14  14  -1  -1  -1  -1  -1  -1  -1  0   0   0   13  11  14  11  15  17  0   0   0   0   0   0   0   0   0   0   0   0   0   0   0   0   0   0   0   0   0   0   0   0   0   0   0   0   0   0   0   0   0   0   0   0   0   0   0   0   0   0   8   6   9   9   8   7   0   0   0   
-1  14  14  13  13  13  13  16  14  14  -1  0   0   13  11  14  11  15  17  0   0   0   0   0   0   0   0   0   0   0   0   0   0   0   0   0   0   0   0   0   0   0   0   0   0   0   0   0   0   0   0   0   0   0   0   0   0   0   0   0   0   8   6   9   9   8   7   0   0   0   
-1  14  14  13  13  13  13  16  14  14  0   -1  0   13  11  14  11  15  17  0   0   0   0   0   0   0   0   0   0   0   0   0   0   0   0   0   0   0   0   0   0   0   0   0   0   0   0   0   0   0   0   0   0   0   0   0   0   0   0   0   0   8   6   9   9   8   7   0   0   0   
-1  9   7   4   -1  4   -1  7   7   5   13  13  13  0   4   1   4   4   4   13  13  13  13  13  13  13  13  13  13  13  13  13  13  13  13  13  13  13  13  13  13  13  13  13  13  13  13  13  13  13  13  13  13  13  13  13  13  13  13  13  13  7   11  12  10  7   12  13  13  0   
-1  7   5   4   2   6   4   5   5   5   11  11  11  -1  0   5   2   6   6   11  11  11  11  11  11  11  11  11  11  11  11  11  11  11  11  11  11  11  11  11  11  11  11  11  11  11  11  11  11  11  11  11  11  11  11  11  11  11  11  11  11  5   9   10  8   5   10  11  11  0   
-1  8   8   3   3   -1  3   6   8   4   14  14  14  -1  -1  0   3   5   3   14  14  14  14  14  14  14  14  14  14  14  14  14  14  14  14  14  14  14  14  14  14  14  14  14  14  14  14  14  14  14  14  14  14  14  14  14  14  14  14  14  14  8   12  13  11  8   13  14  14  0   
-1  7   7   4   4   4   4   5   7   5   11  11  11  4   2   -1  0   8   6   11  11  11  11  11  11  11  11  11  11  11  11  11  11  11  11  11  11  11  11  11  11  11  11  11  11  11  11  11  11  11  11  11  11  11  11  11  11  11  11  11  11  5   9   10  8   5   10  11  11  0   
-1  7   7   4   -1  4   4   7   5   5   15  15  15  4   6   5   8   0   4   15  15  15  15  15  15  15  15  15  15  15  15  15  15  15  15  15  15  15  15  15  15  15  15  15  15  15  15  15  15  15  15  15  15  15  15  15  15  15  15  15  15  9   11  14  14  9   12  15  15  0   
-1  5   -1  -1  4   4   4   -1  5   5   17  17  17  4   6   3   6   4   0   17  17  17  17  17  17  17  17  17  17  17  17  17  17  17  17  17  17  17  17  17  17  17  17  17  17  17  17  17  17  17  17  17  17  17  17  17  17  17  17  17  17  11  15  14  12  11  12  17  17  0   
-1  14  14  13  13  13  13  16  14  14  -1  0   -1  13  11  14  11  15  17  0   0   0   0   0   0   0   0   0   0   0   0   0   0   0   0   0   0   0   0   0   0   0   0   0   0   0   0   0   0   0   0   0   0   0   0   0   0   0   0   0   0   8   6   9   9   8   7   0   0   0   
-1  14  14  -1  -1  -1  -1  -1  -1  -1  0   -1  -1  13  11  14  11  15  17  -1  0   0   0   0   0   0   0   0   0   0   0   0   0   0   0   0   0   0   0   0   0   0   0   0   0   0   0   0   0   0   0   0   0   0   0   0   0   0   0   0   0   8   6   9   9   8   7   0   0   0   
-1  14  14  13  13  13  13  16  14  14  0   0   0   13  11  14  11  15  17  0   -1  0   0   0   0   0   0   0   0   0   0   0   0   0   0   0   0   0   0   0   0   0   0   0   0   0   0   0   0   0   0   0   0   0   0   0   0   0   0   0   0   8   6   9   9   8   7   0   0   0   
-1  14  14  13  13  13  13  16  14  14  0   0   -1  13  11  14  11  15  17  -1  0   -1  0   0   0   0   0   0   0   0   0   0   0   0   0   0   0   0   0   0   0   0   0   0   0   0   0   0   0   0   0   0   0   0   0   0   0   0   0   0   0   8   6   9   9   8   7   0   0   0   
-1  14  14  13  13  13  13  16  14  14  0   0   0   13  11  14  11  15  17  -1  -1  0   -1  0   0   0   0   0   0   0   0   0   0   0   0   0   0   0   0   0   0   0   0   0   0   0   0   0   0   0   0   0   0   0   0   0   0   0   0   0   0   8   6   9   9   8   7   0   0   0   
-1  14  14  -1  -1  -1  -1  -1  -1  -1  0   0   0   13  11  14  11  15  17  -1  0   -1  -1  -1  0   0   0   0   0   0   0   0   0   0   0   0   0   0   0   0   0   0   0   0   0   0   0   0   0   0   0   0   0   0   0   0   0   0   0   0   0   8   6   9   9   8   7   0   0   0   
-1  14  14  13  13  13  13  16  14  14  0   0   0   13  11  14  11  15  17  0   0   0   0   0   -1  0   0   0   0   0   0   0   0   0   0   0   0   0   0   0   0   0   0   0   0   0   0   0   0   0   0   0   0   0   0   0   0   0   0   0   0   8   6   9   9   8   7   0   0   0   
-1  14  14  13  13  13  13  16  14  14  0   0   0   13  11  14  11  15  17  0   0   0   0   0   0   -1  0   0   0   0   0   0   0   0   0   0   0   0   0   0   0   0   0   0   0   0   0   0   0   0   0   0   0   0   0   0   0   0   0   0   0   8   6   9   9   8   7   0   0   0   
-1  14  14  13  13  13  13  16  14  14  0   0   0   13  11  14  11  15  17  0   0   0   -1  -1  0   0   -1  0   0   0   0   0   0   0   0   0   0   0   0   0   0   0   0   0   0   0   0   0   0   0   0   0   0   0   0   0   0   0   0   0   0   8   6   9   9   8   7   0   0   0   
-1  14  14  13  13  13  13  16  14  14  0   0   0   13  11  14  11  15  17  0   0   0   0   -1  -1  0   0   -1  0   0   0   0   0   0   0   0   0   0   0   0   0   0   0   0   0   0   0   0   0   0   0   0   0   0   0   0   0   0   0   0   0   8   6   9   9   8   7   0   0   0   
-1  14  14  -1  -1  -1  -1  -1  -1  -1  0   0   0   13  11  14  11  15  17  -1  0   0   0   -1  0   0   -1  -1  -1  0   0   0   0   0   0   0   0   0   0   0   0   0   0   0   0   0   0   0   0   0   0   0   0   0   0   0   0   0   0   0   0   8   6   9   9   8   7   0   0   0   
-1  14  14  13  13  13  13  16  14  14  0   0   0   13  11  14  11  15  17  0   0   0   0   0   0   0   0   0   0   -1  0   0   0   0   0   0   0   0   0   0   0   0   0   0   0   0   0   0   0   0   0   0   0   0   0   0   0   0   0   0   0   8   6   9   9   8   7   0   0   0   
-1  14  14  13  13  13  13  16  14  14  0   0   0   13  11  14  11  15  17  0   0   0   0   0   0   0   0   -1  -1  0   -1  0   0   0   0   0   0   0   0   0   0   0   0   0   0   0   0   0   0   0   0   0   0   0   0   0   0   0   0   0   0   8   6   9   9   8   7   0   0   0   
-1  14  14  13  13  13  13  16  14  14  0   0   0   13  11  14  11  15  17  0   0   0   0   0   0   0   0   0   -1  -1  0   -1  0   0   0   0   0   0   0   0   0   0   0   0   0   0   0   0   0   0   0   0   0   0   0   0   0   0   0   0   0   8   6   9   9   8   7   0   0   0   
-1  14  14  -1  -1  -1  -1  -1  -1  -1  0   0   0   13  11  14  11  15  17  -1  0   0   0   -1  0   0   0   0   -1  0   -1  -1  -1  0   0   0   0   0   0   0   0   0   0   0   0   0   0   0   0   0   0   0   0   0   0   0   0   0   0   0   0   8   6   9   9   8   7   0   0   0   
-1  14  14  13  13  13  13  16  14  14  0   0   0   13  11  14  11  15  17  0   0   0   0   0   0   0   0   0   0   0   0   0   0   -1  0   0   0   0   0   0   0   0   0   0   0   0   0   0   0   0   0   0   0   0   0   0   0   0   0   0   0   8   6   9   9   8   7   0   0   0   
-1  14  14  13  13  13  13  16  14  14  0   0   0   13  11  14  11  15  17  0   0   0   0   0   0   0   0   0   0   0   0   0   0   0   -1  0   0   0   0   0   0   0   0   0   0   0   0   0   0   0   0   0   0   0   0   0   0   0   0   0   0   8   6   9   9   8   7   0   0   0   
-1  14  14  13  13  13  13  16  14  14  0   0   0   13  11  14  11  15  17  0   0   0   0   0   0   0   0   0   0   0   0   -1  -1  0   0   -1  0   0   0   0   0   0   0   0   0   0   0   0   0   0   0   0   0   0   0   0   0   0   0   0   0   8   6   9   9   8   7   0   0   0   
-1  -1  14  13  13  13  13  16  14  14  0   0   0   13  11  14  11  15  17  0   0   0   0   0   0   0   0   0   0   0   0   0   0   0   0   -1  -1  0   0   0   0   0   0   0   0   0   0   0   0   0   0   0   0   0   0   0   0   0   0   0   0   8   6   9   9   8   7   0   0   0   
-1  14  14  13  13  13  13  16  14  14  0   0   0   13  11  14  11  15  17  0   0   0   0   0   0   0   0   0   0   0   0   0   -1  -1  0   0   -1  0   0   0   0   0   0   0   0   0   0   0   0   0   0   0   0   0   0   0   0   0   0   0   0   8   6   9   9   8   7   0   0   0   
-1  14  14  -1  -1  -1  -1  -1  -1  -1  0   0   0   13  11  14  11  15  17  -1  0   0   0   -1  0   0   0   0   -1  0   0   0   -1  0   0   0   0   0   -1  0   0   0   0   0   0   0   0   0   0   0   0   0   0   0   0   0   0   0   0   0   0   8   6   9   9   8   7   0   0   0   
-1  14  14  13  13  13  13  16  14  14  0   0   0   13  11  14  11  15  17  0   0   0   0   0   0   0   0   0   0   0   0   0   0   0   0   0   -1  -1  -1  0   0   0   0   0   0   0   0   0   0   0   0   0   0   0   0   0   0   0   0   0   0   8   6   9   9   8   7   0   0   0   
-1  14  14  13  13  13  13  16  14  14  0   0   0   13  11  14  11  15  17  0   0   0   0   0   0   0   0   0   0   0   0   0   0   0   0   0   0   -1  0   -1  -1  0   0   0   0   0   0   0   0   0   0   0   0   0   0   0   0   0   0   0   0   8   6   9   9   8   7   0   0   0   
-1  14  14  13  13  13  13  16  14  14  0   0   0   13  11  14  11  15  17  0   0   0   0   0   0   0   0   0   0   0   0   0   0   0   0   0   0   0   0   0   0   -1  0   0   0   0   0   0   0   0   0   0   0   0   0   0   0   0   0   0   0   8   6   9   9   8   7   0   0   0   
-1  14  14  13  13  13  13  16  14  14  0   0   0   13  11  14  11  15  17  0   0   0   0   0   0   0   0   0   0   0   0   0   0   0   0   0   0   0   0   0   -1  0   0   0   0   0   0   0   0   0   0   0   0   0   0   0   0   0   0   0   0   8   6   9   9   8   7   0   0   0   
-1  14  14  13  13  13  13  16  14  14  0   0   0   13  11  14  11  15  17  0   0   0   0   0   0   0   0   0   0   0   0   0   0   0   0   0   0   0   0   0   0   0   -1  0   0   0   0   0   0   0   0   0   0   0   0   0   0   0   0   0   0   8   6   9   9   8   7   0   0   0   
-1  14  14  13  13  13  13  16  14  14  0   0   0   13  11  14  11  15  17  0   0   0   0   0   0   0   0   0   0   0   0   0   0   0   0   0   0   0   -1  -1  0   0   0   0   -1  0   0   0   0   0   0   0   0   0   0   0   0   0   0   0   0   8   6   9   9   8   7   0   0   0   
-1  14  14  -1  -1  -1  -1  -1  -1  -1  0   0   0   13  11  14  11  15  17  -1  0   0   0   -1  0   0   0   0   -1  0   0   0   -1  0   0   0   0   0   -1  0   0   0   -1  0   -1  -1  0   0   0   0   0   0   0   0   0   0   0   0   0   0   0   8   6   9   9   8   7   0   0   0   
-1  14  14  13  13  13  13  16  14  14  0   0   0   13  11  14  11  15  17  0   0   0   0   0   0   0   0   0   0   0   0   0   0   0   0   0   0   0   0   0   0   0   0   0   -1  -1  0   0   0   0   0   0   0   0   0   0   0   0   0   0   0   8   6   9   9   8   7   0   0   0   
-1  14  14  13  13  13  13  16  14  14  0   0   0   13  11  14  11  15  17  0   0   0   0   0   0   0   0   0   0   0   0   0   0   0   0   0   0   0   0   0   0   0   0   0   0   0   -1  0   0   0   0   0   0   0   0   0   0   0   0   0   0   8   6   9   9   8   7   0   0   0   
-1  14  14  13  13  13  13  16  14  14  0   0   0   13  11  14  11  15  17  0   0   0   0   0   0   0   0   0   0   0   0   0   0   0   0   0   0   0   0   0   0   0   0   -1  0   0   0   -1  0   0   0   0   0   0   0   0   0   0   0   0   0   8   6   9   9   8   7   0   0   0   
-1  14  14  13  13  13  13  16  14  14  0   0   0   13  11  14  11  15  17  0   0   0   0   0   0   0   0   0   0   0   0   0   0   0   0   0   0   0   0   0   0   0   0   0   0   0   0   -1  0   -1  0   0   0   0   0   0   0   0   0   0   0   8   6   9   9   8   7   0   0   0   
-1  14  14  13  13  13  13  16  14  14  0   0   0   13  11  14  11  15  17  0   0   0   0   0   0   0   0   0   0   0   0   0   0   0   0   0   0   0   0   0   0   0   0   0   0   0   0   0   -1  0   0   0   0   0   0   0   0   0   0   0   0   8   6   9   9   8   7   0   0   0   
-1  14  14  13  13  13  13  16  14  14  0   0   0   13  11  14  11  15  17  0   0   0   0   0   0   0   0   0   0   0   0   0   0   0   0   0   0   0   0   0   0   0   0   0   0   0   0   0   0   -1  -1  0   0   0   0   0   0   0   0   0   0   8   6   9   9   8   7   0   0   0   
-1  14  14  13  13  13  13  16  14  14  0   0   0   13  11  14  11  15  17  0   0   0   0   0   0   0   0   0   0   0   0   0   0   0   0   0   0   0   0   0   0   0   0   0   0   -1  -1  0   0   0   0   -1  0   0   0   0   0   0   0   0   0   8   6   9   9   8   7   0   0   0   
-1  14  14  -1  -1  -1  -1  -1  -1  -1  0   0   0   13  11  14  11  15  17  -1  0   0   0   -1  0   0   0   0   -1  0   0   0   -1  0   0   0   0   0   -1  0   0   0   0   0   0   -1  0   0   -1  0   0   -1  0   -1  0   0   0   0   0   0   0   8   6   9   9   8   7   0   0   0   
-1  14  14  13  13  13  13  16  14  14  0   0   0   13  11  14  11  15  17  0   0   0   0   0   0   0   0   0   0   0   0   0   0   0   0   0   0   0   0   0   0   0   0   0   0   0   0   0   0   0   0   0   0   0   -1  0   0   0   0   0   0   8   6   9   9   8   7   0   0   0   
-1  14  14  13  13  13  13  16  14  14  0   0   0   13  11  14  11  15  17  0   0   0   0   0   0   0   0   0   0   0   0   0   0   0   0   0   0   0   0   0   0   0   0   0   0   0   0   0   0   0   0   0   0   0   0   -1  0   0   0   0   0   8   6   9   9   8   7   0   0   0   
-1  14  14  13  13  13  13  16  14  14  0   0   0   13  11  14  11  15  17  0   0   0   0   0   0   0   0   0   0   0   0   0   0   0   0   0   0   0   0   0   0   0   0   0   0   0   0   0   0   -1  0   0   -1  0   0   0   -1  0   0   0   0   8   6   9   9   8   7   0   0   0   
-1  14  14  13  13  13  13  16  14  14  0   0   0   13  11  14  11  15  17  0   0   0   0   0   0   0   0   0   0   0   0   0   0   0   0   0   0   0   0   0   0   0   0   0   0   0   0   0   0   0   0   0   0   0   0   0   0   0   0   0   0   8   6   9   9   8   7   0   0   0   
-1  14  14  13  13  13  13  16  14  14  0   0   0   13  11  14  11  15  17  0   0   0   0   0   0   0   0   0   0   0   0   0   0   0   0   0   0   0   0   0   0   0   0   0   0   0   0   0   0   0   0   0   0   0   0   0   0   0   0   0   0   8   6   9   9   8   7   0   0   0   
-1  14  14  13  13  13  13  16  14  14  0   0   0   13  11  14  11  15  17  0   0   0   0   0   0   0   0   0   0   0   0   0   0   0   0   0   0   0   0   0   0   0   0   0   0   0   0   0   0   0   0   0   0   -1  -1  0   0   -1  0   0   0   8   6   9   9   8   7   0   0   0   
-1  10  10  7   7   7   7   10  8   -1  -1  8   8   7   5   8   5   9   11  8   -1  8   8   8   -1  8   8   8   8   -1  8   8   8   -1  8   8   8   8   8   -1  8   8   8   8   8   8   -1  8   8   8   8   8   8   8   -1  8   8   8   8   8   8   0   4   7   7   0   5   8   8   0   
-1  12  12  11  11  11  11  14  12  12  6   6   6   11  9   12  9   11  15  6   6   6   6   6   6   6   6   6   6   6   6   6   6   6   6   6   6   6   6   6   6   6   6   6   6   6   6   6   6   6   6   6   6   6   6   6   6   6   6   6   6   -1  0   5   5   4   3   6   6   0   
-1  11  11  12  12  12  12  13  11  13  9   9   9   12  10  13  10  14  14  9   9   9   9   9   9   9   9   9   9   9   9   9   9   9   9   9   9   9   9   9   9   9   9   9   9   9   9   9   9   9   9   9   9   9   9   9   9   9   9   9   9   7   5   0   2   7   4   9   9   0   
-1  11  9   12  10  12  10  11  11  13  9   9   9   10  8   11  8   14  12  9   9   9   9   9   9   9   9   9   9   9   9   9   9   9   9   9   9   9   9   9   9   9   9   9   9   9   9   9   9   9   9   9   9   9   9   9   9   9   9   9   9   7   5   2   0   7   4   9   9   0   
-1  10  10  7   7   7   7   10  8   8   8   8   8   7   5   8   5   9   11  8   8   8   8   8   8   8   8   8   8   8   8   8   8   8   8   8   8   8   8   8   8   8   8   8   8   8   8   8   8   8   8   8   8   8   8   8   8   8   8   8   8   -1  -1  7   7   0   5   8   8   0   
-1  -1  9   12  12  10  10  11  -1  13  7   7   7   12  10  13  10  12  12  7   7   7   7   7   7   7   7   7   7   7   7   7   7   7   7   7   7   -1  7   7   7   7   7   7   7   7   7   7   7   7   7   7   7   7   7   7   7   7   7   7   7   5   3   4   4   -1  0   7   7   0   
-1  14  14  13  13  13  13  16  14  14  0   0   0   13  11  14  11  15  17  0   0   0   0   0   0   0   0   0   0   0   0   0   0   0   0   0   0   0   0   0   0   0   0   0   0   0   0   0   0   0   0   0   0   0   0   0   0   0   0   -1  0   8   6   9   9   8   7   0   0   0   
-1  14  14  13  13  13  13  16  14  14  0   0   0   13  11  14  11  15  17  0   0   0   0   0   0   0   0   0   0   0   0   0   0   0   0   0   0   0   0   0   0   0   0   0   0   0   0   0   0   0   0   0   0   0   0   0   0   0   -1  0   0   8   6   9   9   8   7   0   0   0   
-1  -1  -1  -1  -1  -1  -1  -1  -1  -1  -1  -1  -1  -1  -1  -1  -1  -1  -1  -1  -1  -1  -1  -1  -1  -1  -1  -1  -1  -1  -1  -1  -1  -1  -1  -1  -1  -1  -1  -1  -1  -1  -1  -1  -1  -1  -1  -1  -1  -1  -1  -1  -1  -1  -1  -1  -1  -1  -1  -1  -1  -1  -1  -1  -1  -1  -1  -1  -1  0   
EOF